p cnf 94 250
17 14 -79 0
30 16 -70 0
45 46 -55 0
27 28 -46 0
11 -12 38 0
7 -8 36 0
41 -42 53 0
27 -23 68 0
35 -36 50 0
-13 4 76 0
-45 46 55 0
63 94 0
27 23 -68 0
-7 -8 -36 0
-37 38 51 0
13 14 -39 0
-11 -12 -38 0
-64 -65 -80 0
15 21 -71 0
-9 11 77 0
-66 67 81 0
-72 73 84 0
19 -10 78 0
13 -14 39 0
-86 -87 -91 0
61 -62 63 0
-15 -16 -40 0
-31 -32 -48 0
29 -30 47 0
-2 12 64 0
49 -50 57 0
-80 -81 -88 0
49 50 -57 0
-22 -8 -72 0
15 16 -40 0
-33 34 49 0
-92 -93 -94 0
78 79 -87 0
90 -91 93 0
61 62 -63 0
55 -56 60 0
-33 -34 -49 0
-35 36 50 0
74 -75 85 0
-24 29 66 0
-3 28 75 0
-53 54 59 0
90 91 -93 0
47 48 -56 0
64 -65 80 0
86 87 -91 0
2 -12 64 0
9 11 -77 0
9 -10 37 0
-27 -28 -46 0
92 93 -94 0
68 -69 82 0
31 18 -74 0
70 -71 83 0
19 -20 42 0
7 -25 73 0
9 -11 77 0
-9 -11 -77 0
-64 65 80 0
-7 8 36 0
35 36 -50 0
-45 -46 -55 0
78 -79 87 0
-72 -73 -84 0
15 -21 71 0
2 12 -64 0
-74 -75 -85 0
80 -81 88 0
-51 52 58 0
-19 -20 -42 0
-86 87 91 0
-1 -5 -67 0
-9 10 37 0
47 -48 56 0
20 -26 65 0
-27 28 46 0
-31 -18 -74 0
-84 85 90 0
-43 44 54 0
-39 40 52 0
-17 -14 -79 0
1 2 -33 0
-55 -56 -60 0
-17 -18 -41 0
53 -54 59 0
-20 -26 -65 0
33 34 -49 0
-43 -44 -54 0
-82 83 89 0
39 -40 52 0
-1 -2 -33 0
33 -34 49 0
-23 24 44 0
-1 2 33 0
57 58 -61 0
76 -77 86 0
-53 -54 -59 0
41 42 -53 0
66 -67 81 0
17 18 -41 0
84 -85 90 0
-2 -12 -64 0
1 -2 33 0
68 69 -82 0
-76 -77 -86 0
-15 -21 -71 0
-1 5 67 0
17 -14 79 0
19 10 -78 0
7 8 -36 0
20 26 -65 0
55 56 -60 0
59 60 -62 0
-88 89 92 0
19 20 -42 0
-78 -79 -87 0
27 -28 46 0
-74 75 85 0
17 -18 41 0
-11 12 38 0
-27 23 68 0
24 29 -66 0
-51 -52 -58 0
74 75 -85 0
37 38 -51 0
6 32 -69 0
-13 -14 -39 0
11 12 -38 0
-23 -24 -44 0
-61 62 63 0
64 65 -80 0
-41 42 53 0
-19 20 42 0
29 30 -47 0
82 -83 89 0
13 4 -76 0
70 71 -83 0
9 10 -37 0
-5 6 35 0
3 28 -75 0
3 4 -34 0
-29 30 47 0
15 -16 40 0
31 32 -48 0
-15 16 40 0
21 22 -43 0
-21 -22 -43 0
-7 -25 -73 0
-59 -60 -62 0
-27 -23 -68 0
82 83 -89 0
-57 -58 -61 0
-63 -94 0
-24 -29 -66 0
3 -28 75 0
51 52 -58 0
-35 -36 -50 0
-88 -89 -92 0
-59 60 62 0
-90 -91 -93 0
-19 10 78 0
88 -89 92 0
-19 -10 -78 0
88 89 -92 0
-41 -42 -53 0
25 -26 45 0
-17 14 79 0
-66 -67 -81 0
22 -8 72 0
76 77 -86 0
-70 71 83 0
3 -4 34 0
-22 8 72 0
6 -32 69 0
-68 69 82 0
-13 -4 -76 0
-3 4 34 0
-6 -32 -69 0
-61 -62 -63 0
-47 -48 -56 0
-47 48 56 0
-39 -40 -52 0
-29 -30 -47 0
31 -18 74 0
51 -52 58 0
45 -46 55 0
-25 -26 -45 0
31 -32 48 0
-25 26 45 0
-31 18 74 0
-57 58 61 0
-17 18 41 0
-5 -6 -35 0
-7 25 73 0
30 -16 70 0
-9 -10 -37 0
5 6 -35 0
-70 -71 -83 0
72 -73 84 0
-31 32 48 0
-30 -16 -70 0
-84 -85 -90 0
66 67 -81 0
59 -60 62 0
1 5 -67 0
1 -5 67 0
80 81 -88 0
-6 32 69 0
-3 -28 -75 0
-21 22 43 0
-55 56 60 0
25 26 -45 0
24 -29 66 0
-30 16 70 0
13 -4 76 0
-80 81 88 0
86 -87 91 0
-82 -83 -89 0
53 54 -59 0
72 73 -84 0
-3 -4 -34 0
7 25 -73 0
39 40 -52 0
-92 93 94 0
57 -58 61 0
43 -44 54 0
-78 79 87 0
23 -24 44 0
37 -38 51 0
92 -93 94 0
23 24 -44 0
5 -6 35 0
-90 91 93 0
-68 -69 -82 0
-49 -50 -57 0
-20 26 65 0
43 44 -54 0
21 -22 43 0
-37 -38 -51 0
-49 50 57 0
-15 21 71 0
84 85 -90 0
22 8 -72 0
-76 77 86 0
-13 14 39 0
